c colouring generated by benchmark framework
p edge 128 3216
v 1 43
v 2 5
v 3 26
v 4 23
v 5 13
v 6 24
v 7 36
v 8 30
v 9 41
v 10 22
v 11 12
v 12 39
v 13 31
v 14 8
v 15 24
v 16 0
v 17 34
v 18 8
v 19 37
v 20 32
v 21 6
v 22 30
v 23 13
v 24 1
v 25 37
v 26 17
v 27 27
v 28 12
v 29 0
v 30 20
v 31 13
v 32 5
v 33 10
v 34 3
v 35 23
v 36 8
v 37 8
v 38 13
v 39 28
v 40 7
v 41 23
v 42 29
v 43 31
v 44 2
v 45 26
v 46 41
v 47 37
v 48 25
v 49 22
v 50 18
v 51 32
v 52 16
v 53 14
v 54 32
v 55 19
v 56 25
v 57 23
v 58 35
v 59 11
v 60 3
v 61 24
v 62 29
v 63 42
v 64 8
v 65 15
v 66 0
v 67 22
v 68 34
v 69 40
v 70 37
v 71 38
v 72 26
v 73 13
v 74 14
v 75 33
v 76 17
v 77 38
v 78 41
v 79 20
v 80 18
v 81 37
v 82 25
v 83 38
v 84 36
v 85 2
v 86 21
v 87 35
v 88 42
v 89 18
v 90 25
v 91 7
v 92 6
v 93 28
v 94 18
v 95 40
v 96 43
v 97 2
v 98 16
v 99 19
v 100 24
v 101 22
v 102 33
v 103 6
v 104 9
v 105 1
v 106 30
v 107 2
v 108 32
v 109 3
v 110 35
v 111 11
v 112 9
v 113 39
v 114 11
v 115 3
v 116 4
v 117 26
v 118 27
v 119 28
v 120 42
v 121 40
v 122 41
v 123 15
v 124 30
v 125 9
v 126 10
v 127 9
v 128 21
